10J3M/DAT/10J3MNNL-5.dat
10 3
33.9281 33.9281
26.8845 26.8845
32.0679 32.0679
25.5935 25.5935
23.06 23.06
25.8828 25.8828
21.0282 21.0282
25.9407 25.9407
23.3395 23.3395
24.7883 24.7883
262.5135