10J3M/SOL/10J3MNNL-5.sol
solution status: optimal solution found
objective value:                              87.5045
x#1#1                               0.363754527957652 	(obj:0)
x#1#3                               0.636245472042348 	(obj:0)
x#2#3                                               1 	(obj:0)
x#3#3                                               1 	(obj:0)
x#4#2                               0.727841053392464 	(obj:0)
x#4#3                               0.272158946607536 	(obj:0)
x#5#2                                               1 	(obj:0)
x#6#1                                               1 	(obj:0)
x#7#2                                               1 	(obj:0)
x#8#1                                               1 	(obj:0)
x#9#1                                               1 	(obj:0)
x#10#2                                              1 	(obj:0)
z                                             87.5045 	(obj:1)
